c FILE: random-n100-d20-f-n100-d20-1.col

p edge 100 990
e 1 2
e 1 7
e 1 11
e 1 13
e 1 16
e 1 19
e 1 22
e 1 25
e 1 27
e 1 28
e 1 29
e 1 31
e 1 32
e 1 39
e 1 40
e 1 46
e 1 53
e 1 55
e 1 57
e 1 64
e 1 66
e 1 75
e 1 77
e 1 83
e 1 98
e 2 16
e 2 19
e 2 22
e 2 24
e 2 26
e 2 28
e 2 29
e 2 34
e 2 36
e 2 53
e 2 59
e 2 79
e 2 82
e 2 83
e 2 98
e 2 99
e 3 14
e 3 18
e 3 25
e 3 27
e 3 28
e 3 29
e 3 35
e 3 37
e 3 42
e 3 43
e 3 46
e 3 52
e 3 58
e 3 59
e 3 63
e 3 68
e 3 70
e 3 73
e 3 74
e 3 76
e 3 78
e 3 80
e 3 81
e 3 84
e 3 85
e 3 98
e 4 11
e 4 13
e 4 20
e 4 27
e 4 34
e 4 40
e 4 42
e 4 61
e 4 65
e 4 66
e 4 70
e 4 71
e 4 83
e 4 90
e 4 92
e 4 94
e 4 98
e 4 99
e 5 6
e 5 10
e 5 12
e 5 19
e 5 27
e 5 28
e 5 32
e 5 34
e 5 41
e 5 50
e 5 59
e 5 75
e 5 81
e 6 21
e 6 22
e 6 24
e 6 27
e 6 33
e 6 39
e 6 45
e 6 50
e 6 52
e 6 57
e 6 58
e 6 60
e 6 62
e 6 64
e 6 68
e 6 70
e 6 74
e 6 85
e 6 86
e 6 93
e 6 98
e 6 100
e 7 8
e 7 11
e 7 20
e 7 27
e 7 29
e 7 34
e 7 37
e 7 39
e 7 43
e 7 44
e 7 60
e 7 64
e 7 67
e 7 71
e 7 72
e 7 73
e 7 75
e 7 76
e 7 77
e 7 78
e 7 81
e 7 91
e 7 95
e 7 99
e 8 23
e 8 29
e 8 34
e 8 39
e 8 45
e 8 48
e 8 49
e 8 50
e 8 58
e 8 76
e 8 80
e 8 84
e 8 87
e 8 89
e 8 92
e 8 93
e 8 94
e 8 97
e 9 14
e 9 16
e 9 22
e 9 26
e 9 27
e 9 32
e 9 36
e 9 44
e 9 64
e 9 70
e 9 73
e 9 74
e 9 85
e 9 87
e 9 98
e 9 100
e 10 12
e 10 14
e 10 20
e 10 22
e 10 23
e 10 29
e 10 30
e 10 34
e 10 36
e 10 39
e 10 51
e 10 58
e 10 66
e 10 69
e 10 70
e 10 71
e 10 79
e 10 81
e 10 84
e 10 86
e 10 95
e 11 18
e 11 22
e 11 26
e 11 27
e 11 28
e 11 38
e 11 40
e 11 52
e 11 53
e 11 71
e 11 72
e 11 77
e 11 78
e 11 83
e 12 17
e 12 19
e 12 23
e 12 31
e 12 32
e 12 38
e 12 39
e 12 40
e 12 41
e 12 46
e 12 60
e 12 63
e 12 66
e 12 70
e 12 72
e 12 76
e 12 85
e 12 86
e 12 90
e 12 94
e 12 97
e 13 17
e 13 18
e 13 25
e 13 29
e 13 35
e 13 36
e 13 39
e 13 62
e 13 66
e 13 78
e 13 83
e 13 87
e 13 88
e 13 96
e 13 97
e 13 98
e 13 99
e 14 15
e 14 38
e 14 40
e 14 41
e 14 42
e 14 43
e 14 50
e 14 56
e 14 57
e 14 61
e 14 73
e 14 84
e 14 87
e 14 90
e 14 92
e 14 95
e 14 100
e 15 18
e 15 30
e 15 32
e 15 34
e 15 43
e 15 53
e 15 58
e 15 66
e 15 69
e 15 72
e 15 76
e 15 88
e 15 90
e 15 96
e 16 17
e 16 24
e 16 26
e 16 27
e 16 28
e 16 30
e 16 33
e 16 34
e 16 36
e 16 37
e 16 38
e 16 41
e 16 45
e 16 46
e 16 55
e 16 56
e 16 61
e 16 73
e 16 79
e 16 80
e 16 83
e 16 87
e 16 91
e 16 96
e 17 19
e 17 30
e 17 32
e 17 34
e 17 40
e 17 41
e 17 49
e 17 50
e 17 52
e 17 55
e 17 57
e 17 66
e 17 67
e 17 85
e 17 87
e 17 89
e 17 92
e 17 95
e 17 96
e 18 22
e 18 25
e 18 26
e 18 34
e 18 38
e 18 44
e 18 62
e 18 64
e 18 68
e 18 69
e 18 73
e 18 74
e 18 80
e 18 83
e 18 84
e 18 86
e 18 88
e 18 89
e 18 93
e 18 94
e 18 95
e 18 100
e 19 40
e 19 44
e 19 47
e 19 49
e 19 57
e 19 65
e 19 81
e 19 82
e 19 86
e 19 95
e 19 98
e 20 25
e 20 41
e 20 42
e 20 43
e 20 52
e 20 56
e 20 58
e 20 61
e 20 65
e 20 68
e 20 71
e 20 72
e 20 75
e 20 79
e 20 83
e 20 96
e 21 26
e 21 28
e 21 33
e 21 34
e 21 40
e 21 50
e 21 55
e 21 57
e 21 59
e 21 62
e 21 63
e 21 66
e 21 69
e 21 82
e 21 86
e 21 89
e 21 90
e 21 92
e 21 95
e 21 96
e 21 97
e 22 24
e 22 26
e 22 30
e 22 33
e 22 40
e 22 52
e 22 57
e 22 58
e 22 69
e 22 70
e 22 73
e 22 79
e 22 83
e 22 92
e 22 95
e 23 24
e 23 35
e 23 37
e 23 39
e 23 44
e 23 59
e 23 67
e 23 68
e 23 72
e 23 80
e 23 82
e 23 83
e 23 97
e 23 100
e 24 25
e 24 32
e 24 39
e 24 40
e 24 41
e 24 64
e 24 65
e 24 66
e 24 85
e 24 91
e 24 95
e 24 98
e 25 27
e 25 28
e 25 30
e 25 32
e 25 37
e 25 38
e 25 39
e 25 48
e 25 53
e 25 59
e 25 82
e 25 84
e 25 85
e 25 92
e 26 29
e 26 30
e 26 36
e 26 40
e 26 42
e 26 52
e 26 59
e 26 69
e 26 70
e 26 75
e 26 77
e 26 85
e 26 88
e 26 97
e 27 29
e 27 31
e 27 33
e 27 35
e 27 39
e 27 40
e 27 52
e 27 55
e 27 58
e 27 59
e 27 64
e 27 68
e 27 69
e 27 70
e 27 71
e 27 75
e 27 76
e 27 81
e 27 94
e 27 96
e 28 31
e 28 35
e 28 40
e 28 56
e 28 58
e 28 60
e 28 63
e 28 65
e 28 67
e 28 70
e 28 71
e 28 83
e 28 86
e 28 97
e 28 100
e 29 30
e 29 31
e 29 41
e 29 43
e 29 56
e 29 60
e 29 66
e 29 71
e 29 72
e 29 76
e 29 80
e 29 84
e 29 86
e 29 92
e 29 93
e 29 96
e 30 32
e 30 37
e 30 54
e 30 65
e 30 77
e 30 82
e 30 88
e 30 92
e 31 37
e 31 39
e 31 42
e 31 43
e 31 51
e 31 52
e 31 53
e 31 54
e 31 61
e 31 62
e 31 69
e 31 71
e 31 76
e 31 80
e 31 81
e 31 82
e 31 100
e 32 36
e 32 37
e 32 40
e 32 45
e 32 48
e 32 52
e 32 56
e 32 59
e 32 69
e 32 70
e 32 73
e 32 85
e 32 92
e 33 57
e 33 67
e 33 69
e 33 73
e 33 74
e 33 76
e 33 80
e 33 81
e 33 83
e 33 85
e 33 87
e 33 89
e 33 90
e 33 95
e 34 46
e 34 47
e 34 48
e 34 50
e 34 53
e 34 63
e 34 70
e 34 78
e 34 79
e 34 84
e 34 94
e 35 39
e 35 47
e 35 49
e 35 56
e 35 63
e 35 69
e 35 71
e 35 79
e 35 88
e 35 90
e 35 95
e 35 97
e 36 42
e 36 53
e 36 56
e 36 61
e 36 71
e 36 72
e 36 77
e 36 78
e 36 82
e 36 84
e 36 87
e 36 89
e 37 40
e 37 42
e 37 46
e 37 59
e 37 60
e 37 65
e 37 68
e 37 77
e 37 79
e 37 82
e 37 84
e 37 85
e 37 92
e 37 98
e 38 43
e 38 49
e 38 51
e 38 56
e 38 57
e 38 63
e 38 65
e 38 66
e 38 72
e 38 81
e 38 89
e 38 95
e 38 96
e 39 49
e 39 51
e 39 59
e 39 61
e 39 62
e 39 68
e 39 69
e 39 74
e 39 75
e 39 78
e 39 83
e 39 96
e 40 47
e 40 50
e 40 54
e 40 67
e 40 77
e 40 83
e 40 87
e 40 94
e 41 53
e 41 58
e 41 71
e 41 73
e 41 81
e 41 82
e 41 87
e 41 89
e 41 91
e 41 96
e 41 99
e 42 47
e 42 50
e 42 55
e 42 56
e 42 58
e 42 60
e 42 73
e 42 85
e 42 88
e 42 89
e 42 90
e 42 91
e 42 93
e 42 94
e 42 95
e 42 98
e 43 50
e 43 51
e 43 55
e 43 57
e 43 61
e 43 62
e 43 68
e 43 73
e 43 74
e 43 75
e 43 76
e 43 78
e 43 82
e 43 83
e 43 87
e 43 90
e 43 91
e 44 50
e 44 52
e 44 53
e 44 56
e 44 61
e 44 63
e 44 64
e 44 77
e 44 93
e 44 100
e 45 48
e 45 54
e 45 66
e 45 68
e 45 70
e 45 87
e 45 91
e 45 97
e 46 49
e 46 50
e 46 61
e 46 63
e 46 70
e 46 74
e 46 78
e 46 90
e 46 100
e 47 48
e 47 49
e 47 59
e 47 62
e 47 63
e 47 66
e 47 70
e 47 74
e 47 78
e 47 80
e 47 81
e 47 89
e 48 54
e 48 58
e 48 61
e 48 62
e 48 67
e 48 73
e 48 75
e 48 77
e 48 81
e 48 86
e 48 92
e 48 95
e 49 51
e 49 62
e 49 66
e 49 67
e 49 68
e 49 72
e 49 73
e 49 83
e 49 91
e 49 98
e 49 99
e 50 63
e 50 66
e 50 73
e 50 75
e 50 77
e 50 79
e 50 87
e 50 90
e 50 91
e 50 92
e 51 62
e 51 66
e 51 69
e 51 70
e 51 77
e 51 78
e 51 80
e 51 84
e 51 89
e 51 93
e 51 94
e 51 95
e 51 97
e 52 57
e 52 65
e 52 68
e 52 74
e 52 76
e 52 79
e 52 83
e 52 91
e 52 93
e 53 57
e 53 64
e 53 66
e 53 67
e 53 71
e 53 76
e 53 79
e 53 81
e 53 83
e 53 91
e 53 93
e 53 97
e 53 99
e 53 100
e 54 56
e 54 64
e 54 69
e 54 73
e 54 75
e 54 77
e 54 78
e 54 79
e 54 86
e 54 90
e 54 91
e 55 61
e 55 63
e 55 83
e 55 85
e 55 87
e 55 91
e 55 93
e 55 96
e 55 97
e 55 99
e 56 73
e 56 82
e 56 87
e 56 93
e 56 99
e 56 100
e 57 58
e 57 71
e 57 77
e 57 82
e 57 87
e 57 92
e 57 100
e 58 59
e 58 61
e 58 72
e 58 79
e 58 82
e 58 83
e 58 85
e 58 87
e 59 64
e 59 66
e 59 68
e 59 75
e 59 77
e 59 85
e 59 90
e 59 96
e 60 63
e 60 67
e 60 69
e 60 70
e 60 71
e 60 72
e 60 73
e 60 81
e 60 87
e 60 89
e 60 97
e 61 67
e 61 95
e 61 96
e 61 97
e 61 99
e 62 63
e 62 89
e 62 92
e 62 100
e 63 68
e 63 79
e 63 90
e 63 92
e 63 93
e 63 98
e 63 99
e 64 68
e 64 73
e 64 77
e 64 78
e 64 86
e 65 70
e 65 71
e 65 73
e 65 83
e 65 90
e 65 91
e 65 96
e 66 79
e 66 84
e 66 87
e 66 91
e 66 93
e 66 96
e 67 69
e 67 79
e 67 83
e 67 84
e 67 91
e 67 93
e 67 99
e 67 100
e 68 75
e 68 83
e 68 88
e 68 91
e 69 93
e 69 96
e 70 78
e 70 82
e 70 83
e 70 86
e 70 88
e 70 89
e 70 91
e 71 74
e 71 79
e 71 82
e 71 92
e 71 95
e 71 99
e 72 73
e 72 79
e 72 80
e 72 83
e 72 86
e 72 94
e 72 95
e 73 75
e 73 81
e 73 82
e 73 90
e 73 93
e 73 94
e 73 97
e 74 76
e 74 78
e 74 87
e 75 92
e 75 94
e 76 81
e 76 83
e 77 80
e 77 82
e 77 87
e 77 93
e 77 94
e 78 83
e 78 84
e 78 85
e 78 92
e 79 82
e 79 92
e 79 99
e 80 86
e 80 94
e 81 84
e 81 86
e 81 98
e 82 88
e 82 95
e 82 96
e 83 85
e 83 90
e 83 91
e 83 92
e 83 96
e 84 98
e 85 96
e 85 100
e 86 94
e 86 100
e 87 88
e 87 90
e 87 94
e 88 90
e 88 98
e 89 99
e 90 91
e 90 92
e 91 98
e 91 99
e 91 100
e 92 99
e 92 100
e 96 98
e 96 100
e 97 98